SDVRP instances/custom_instances/p02_9_splitx10_0.vrp
NAME:p02_9_splitx10_
BEST_KNOWN: 0
COMMENT: 0
DIMENSION: 351
CAPACITY: 1400
EDGE_WEIGHT_FORMAT: FUNCTION
EDGE_WEIGHT_TYPE: EXACT_2D
NODE_COORD_SECTION
1 0.00000 0.00000
2 16 -38
3 16 -38
4 16 -38
5 16 -38
6 -48 20
7 -48 20
8 -48 20
9 -48 20
10 -48 20
11 46 45
12 46 45
13 46 45
14 7 20
15 7 20
16 7 20
17 24 6
18 24 6
19 24 6
20 24 6
21 -34 6
22 -34 6
23 -34 6
24 -34 6
25 -34 6
26 -34 6
27 39 -36
28 39 -36
29 39 -36
30 -36 -19
31 8 10
32 8 10
33 8 10
34 8 10
35 8 10
36 8 10
37 22 -24
38 22 -24
39 22 -24
40 22 -24
41 22 -24
42 -18 33
43 -18 33
44 -18 33
45 -18 33
46 -18 33
47 -14 -11
48 -14 -11
49 -14 -11
50 -14 -11
51 10 -36
52 10 -36
53 10 -36
54 10 -36
55 -19 10
56 -19 10
57 -19 10
58 -19 10
59 -19 10
60 -19 10
61 6 37
62 6 37
63 6 37
64 6 37
65 38 24
66 38 24
67 38 24
68 38 24
69 38 24
70 9 -22
71 9 -22
72 9 -22
73 9 -22
74 9 -22
75 -49 48
76 -49 48
77 -49 48
78 -49 48
79 -25 20
80 -25 20
81 -25 20
82 -25 20
83 -25 20
84 -25 20
85 43 42
86 43 42
87 43 42
88 43 42
89 43 42
90 43 42
91 43 42
92 43 42
93 31 43
94 31 43
95 31 43
96 -45 -39
97 -45 -39
98 -45 -39
99 -45 -39
100 -45 -39
101 -15 38
102 -15 38
103 -15 38
104 -15 38
105 -15 38
106 -30 -18
107 -30 -18
108 -30 -18
109 -44 -48
110 -44 -48
111 -44 -48
112 -44 -48
113 -44 -48
114 40 -21
115 40 -21
116 40 -21
117 40 -21
118 9 -49
119 9 -49
120 9 -49
121 9 -49
122 9 -49
123 37 -47
124 37 -47
125 37 -47
126 37 -47
127 -21 -1
128 -21 -1
129 -22 -21
130 -22 -21
131 -22 -21
132 -22 -21
133 -22 -21
134 31 -18
135 31 -18
136 31 -18
137 31 -18
138 31 -18
139 10 40
140 10 40
141 10 40
142 10 40
143 26 38
144 26 38
145 26 38
146 26 38
147 26 38
148 26 38
149 24 -38
150 24 -38
151 24 -38
152 24 -38
153 24 -38
154 24 -38
155 -22 11
156 -22 11
157 -22 11
158 -22 11
159 -22 11
160 -22 11
161 -41 -43
162 -41 -43
163 -41 -43
164 29 35
165 29 35
166 29 35
167 29 35
168 29 35
169 29 35
170 29 35
171 34 -15
172 34 -15
173 34 -15
174 34 -15
175 34 -15
176 34 -15
177 -50 -50
178 -50 -50
179 7 -15
180 7 -15
181 7 -15
182 7 -15
183 7 -15
184 14 -15
185 14 -15
186 14 -15
187 14 -15
188 14 -15
189 -30 39
190 -30 39
191 -30 39
192 -30 39
193 -30 39
194 -30 39
195 -1 -31
196 -1 -31
197 -1 -31
198 -1 -31
199 -31 -26
200 -31 -26
201 -31 -26
202 -31 -26
203 -31 -26
204 49 45
205 49 45
206 41 -27
207 41 -27
208 41 -27
209 41 -27
210 41 -27
211 41 -27
212 41 -27
213 41 -27
214 -18 26
215 -18 26
216 -18 26
217 -18 26
218 -18 26
219 -18 26
220 -18 26
221 -18 26
222 -48 49
223 -48 49
224 -48 49
225 -48 49
226 -48 49
227 -43 4
228 -43 4
229 -43 4
230 -43 4
231 -26 -36
232 -26 -36
233 -20 17
234 -20 17
235 -20 17
236 -20 17
237 -20 17
238 -20 17
239 -20 17
240 46 20
241 46 20
242 46 20
243 46 20
244 37 4
245 37 4
246 37 4
247 48 -10
248 48 -10
249 48 -10
250 48 -10
251 48 -10
252 -39 -45
253 -39 -45
254 -39 -45
255 -27 48
256 -27 48
257 -27 48
258 -27 48
259 -27 48
260 -27 48
261 -31 -16
262 -31 -16
263 -14 22
264 -14 22
265 -14 22
266 -14 22
267 -14 22
268 -14 22
269 -21 -23
270 -21 -23
271 -21 -23
272 -21 -23
273 -21 -23
274 8 44
275 8 44
276 8 44
277 8 44
278 8 44
279 8 44
280 32 40
281 32 40
282 32 40
283 10 -2
284 10 -2
285 10 -2
286 10 -2
287 -43 10
288 -43 10
289 -43 10
290 -43 10
291 -9 37
292 -9 37
293 -9 37
294 37 21
295 37 21
296 37 21
297 37 21
298 37 21
299 37 21
300 37 21
301 10 -40
302 10 -40
303 10 -40
304 10 -40
305 10 -40
306 10 -40
307 10 -40
308 12 18
309 12 18
310 12 18
311 44 -16
312 44 -16
313 44 -16
314 44 -16
315 44 -16
316 -3 -38
317 -3 -38
318 -3 -38
319 -3 -38
320 -44 -3
321 -44 -3
322 -44 -3
323 -44 -3
324 -44 -3
325 15 -24
326 15 -24
327 15 -24
328 15 -24
329 -23 18
330 -23 18
331 -23 18
332 -23 18
333 -23 18
334 -23 18
335 -19 -16
336 -19 -16
337 -19 -16
338 -19 -16
339 -19 -16
340 -19 -16
341 41 -16
342 41 -16
343 41 -16
344 41 -16
345 41 -16
346 -18 -36
347 -18 -36
348 -18 -36
349 -18 -36
350 -18 -36
351 -18 -36
DEMAND_SECTION
1 0
2 280
3 70
4 14
5 6
6 280
7 280
8 70
9 14
10 6
11 280
12 280
13 140
14 280
15 140
16 10
17 280
18 14
19 14
20 2
21 280
22 280
23 70
24 14
25 14
26 2
27 280
28 280
29 10
30 280
31 280
32 14
33 14
34 14
35 14
36 4
37 280
38 140
39 14
40 14
41 2
42 280
43 140
44 70
45 14
46 6
47 280
48 280
49 70
50 10
51 280
52 140
53 70
54 10
55 280
56 140
57 14
58 14
59 14
60 8
61 280
62 14
63 14
64 2
65 140
66 70
67 14
68 14
69 12
70 140
71 14
72 14
73 14
74 8
75 140
76 14
77 14
78 12
79 280
80 140
81 70
82 14
83 14
84 2
85 280
86 140
87 70
88 14
89 14
90 14
91 14
92 4
93 280
94 140
95 10
96 280
97 14
98 14
99 14
100 8
101 140
102 70
103 14
104 14
105 12
106 280
107 14
108 6
109 280
110 140
111 14
112 14
113 2
114 140
115 14
116 14
117 12
118 280
119 280
120 70
121 14
122 6
123 280
124 280
125 14
126 6
127 280
128 70
129 280
130 140
131 14
132 14
133 2
134 280
135 280
136 70
137 14
138 6
139 280
140 140
141 14
142 6
143 280
144 140
145 70
146 14
147 14
148 2
149 140
150 14
151 14
152 14
153 14
154 4
155 280
156 280
157 70
158 14
159 14
160 12
161 280
162 14
163 6
164 280
165 140
166 70
167 14
168 14
169 14
170 8
171 140
172 70
173 14
174 14
175 14
176 8
177 280
178 140
179 280
180 14
181 14
182 14
183 8
184 140
185 70
186 14
187 14
188 2
189 280
190 280
191 70
192 14
193 14
194 2
195 140
196 14
197 14
198 2
199 280
200 14
201 14
202 14
203 8
204 280
205 140
206 280
207 140
208 70
209 14
210 14
211 14
212 14
213 4
214 280
215 140
216 70
217 14
218 14
219 14
220 14
221 4
222 280
223 14
224 14
225 14
226 8
227 140
228 70
229 14
230 6
231 140
232 70
233 280
234 140
235 70
236 14
237 14
238 14
239 8
240 280
241 70
242 14
243 6
244 280
245 280
246 140
247 280
248 140
249 14
250 14
251 2
252 140
253 70
254 10
255 280
256 280
257 70
258 14
259 14
260 12
261 140
262 70
263 280
264 280
265 70
266 14
267 14
268 2
269 280
270 280
271 14
272 14
273 2
274 280
275 140
276 70
277 14
278 14
279 2
280 280
281 140
282 10
283 280
284 280
285 14
286 6
287 280
288 140
289 14
290 6
291 140
292 70
293 10
294 280
295 140
296 14
297 14
298 14
299 14
300 4
301 280
302 280
303 14
304 14
305 14
306 14
307 4
308 280
309 140
310 10
311 280
312 70
313 14
314 14
315 12
316 280
317 14
318 14
319 2
320 280
321 14
322 14
323 14
324 8
325 280
326 280
327 14
328 6
329 280
330 70
331 14
332 14
333 14
334 8
335 280
336 280
337 14
338 14
339 14
340 8
341 140
342 70
343 14
344 14
345 2
346 140
347 14
348 14
349 14
350 14
351 4
DEPOT_SECTION
1
-1
EOF