SDVRP instances/custom_instances/p02_9_splitx10_0.sol
350 -2 4 1 3 117 121 120 118 119 318 315 317 316 -8 9 5 6 7 287 288 289 286 24 20 23 25 -13 15 14 30 33 31 32 34 35 285 284 283 282 -17 16 19 240 242 239 241 67 66 68 64 65 294 299 293 296 295 298 297 -18 243 245 244 250 247 246 249 248 340 343 341 -21 22 229 228 227 226 320 321 323 319 322 127 126 -29 176 177 110 109 112 108 111 252 251 253 130 132 -39 40 28 27 26 125 124 122 123 149 151 152 150 153 148 -41 219 213 217 215 214 220 262 266 265 267 263 -42 44 43 45 192 193 189 191 188 190 103 102 104 100 101 292 291 290 -46 339 338 334 335 105 106 107 261 260 -47 49 48 131 128 129 271 269 268 270 272 -50 51 52 53 302 303 304 305 301 306 300 194 195 196 197 -58 59 55 56 57 54 155 159 156 158 157 154 -63 61 62 60 277 276 274 273 278 275 139 138 140 141 -81 82 80 74 75 77 76 225 222 223 224 221 256 258 259 257 254 255 216 218 264 -84 89 94 92 93 279 281 280 308 -87 86 85 88 90 91 12 11 10 204 203 -136 137 134 135 133 37 36 38 183 184 187 186 185 -163 164 168 165 167 169 166 146 143 145 144 147 142 307 309 -175 171 172 174 173 170 342 344 310 312 311 313 314 116 113 115 114 207 211 206 209 210 208 205 212 -179 180 182 181 178 72 70 73 71 69 326 327 324 325 -237 238 234 232 236 233 235 78 83 79 332 331 329 328 330 333 -337 336 199 198 201 200 202 95 98 99 97 96 161 162 160 230 231 345 349 347 348 350 346 0 





OBJ=
2344.896
BEST_KNOWN=
0.000